
******************************************************************************
This program contains Ipopt, a library for large-scale nonlinear optimization.
 Ipopt is released as open source code under the Eclipse Public License (EPL).
         For more information visit http://projects.coin-or.org/Ipopt

This version of Ipopt was compiled from source code available at
    https://github.com/IDAES/Ipopt as part of the Institute for the Design of
    Advanced Energy Systems Process Systems Engineering Framework (IDAES PSE
    Framework) Copyright (c) 2018-2019. See https://github.com/IDAES/idaes-pse.

This version of Ipopt was compiled using HSL, a collection of Fortran codes
    for large-scale scientific computation.  All technical papers, sales and
    publicity material resulting from use of the HSL codes within IPOPT must
    contain the following acknowledgement:
        HSL, a collection of Fortran codes for large-scale scientific
        computation. See http://www.hsl.rl.ac.uk.
******************************************************************************

This is Ipopt version 3.13.2, running with linear solver ma27.

Number of nonzeros in equality constraint Jacobian...:     1084
Number of nonzeros in inequality constraint Jacobian.:        0
Number of nonzeros in Lagrangian Hessian.............:     1088

Total number of variables............................:      448
                     variables with only lower bounds:      128
                variables with lower and upper bounds:      256
                     variables with only upper bounds:        0
Total number of equality constraints.................:      446
Total number of inequality constraints...............:        0
        inequality constraints with only lower bounds:        0
   inequality constraints with lower and upper bounds:        0
        inequality constraints with only upper bounds:        0

iter    objective    inf_pr   inf_du lg(mu)  ||d||  lg(rg) alpha_du alpha_pr  ls
   0  0.0000000e+00 2.75e-01 2.84e-14  -1.0 0.00e+00    -  0.00e+00 0.00e+00   0
   1  1.3121477e-01 8.41e-03 3.00e+02  -1.0 3.61e+04    -  9.23e-01 9.90e-01h  1
   2  1.3369600e-01 8.83e-05 3.56e+00  -1.0 1.54e+03    -  9.86e-01 9.90e-01h  1
   3  1.3366479e-01 9.16e-07 1.30e+01  -1.0 2.26e+02    -  9.90e-01 9.90e-01h  1
   4  1.3964250e-01 2.62e-07 9.77e+00  -1.0 5.00e+03    -  9.90e-01 9.90e-01H  1
   5  1.3364118e-01 1.46e-07 3.69e+03  -1.7 3.79e+03    -  9.90e-01 9.90e-01H  1
   6  1.3316754e-01 4.49e-09 7.59e+05  -2.5 1.21e+03    -  9.97e-01 9.97e-01H  1
   7  1.3316706e-01 4.46e-11 2.83e+09  -2.5 5.13e+00    -  1.00e+00 9.97e-01h  1
In iteration 7, 32 Slacks too small, adjusting variable bounds
   8  1.3316706e-01 6.10e-12 1.00e+12  -2.5 1.45e-02    -  1.00e+00 9.97e-01h  1
   9  1.3316706e-01 9.13e-13 6.25e-02  -2.5 4.11e-05    -  1.00e+00 1.00e+00H  1
iter    objective    inf_pr   inf_du lg(mu)  ||d||  lg(rg) alpha_du alpha_pr  ls
  10  1.3316703e-01 6.88e-13 1.00e+12  -9.0 1.89e+02    -  1.00e+00 1.95e-03h 10
  11  1.3316702e-01 3.64e-12 1.00e+12  -9.0 1.88e+02    -  1.00e+00 4.88e-04h 12
  12  1.3316701e-01 1.52e-12 1.00e+12  -9.0 1.88e+02    -  1.00e+00 4.88e-04h 12
  13  1.3316701e-01 1.73e-12 1.00e+12  -9.0 1.88e+02    -  1.00e+00 2.44e-04h 13
  14  1.3316701e-01 3.41e-12 1.00e+12  -9.0 1.88e+02    -  1.00e+00 1.53e-05h 17
  15  1.3315826e-01 4.23e-08 5.68e-05  -9.0 1.88e+02    -  1.00e+00 1.00e+00f  1
  16  1.3315826e-01 1.70e-11 5.82e-11  -9.0 1.09e-02    -  1.00e+00 1.00e+00h  1

Number of Iterations....: 16

                                   (scaled)                 (unscaled)
Objective...............:   1.3315826434191466e-01    1.3315826434191466e-01
Dual infeasibility......:   5.8207660913467407e-11    5.8207660913467407e-11
Constraint violation....:   1.6989520901233846e-11    1.6989520901233846e-11
Complementarity.........:   9.0909090909090931e-10    9.0909090909090931e-10
Overall NLP error.......:   1.6989520901233846e-11    9.0909090909090931e-10


Number of objective function evaluations             = 99
Number of objective gradient evaluations             = 17
Number of equality constraint evaluations            = 99
Number of inequality constraint evaluations          = 0
Number of equality constraint Jacobian evaluations   = 17
Number of inequality constraint Jacobian evaluations = 0
Number of Lagrangian Hessian evaluations             = 16
Total CPU secs in IPOPT (w/o function evaluations)   =      0.031
Total CPU secs in NLP function evaluations           =      0.649

EXIT: Optimal Solution Found.
